w = 15;

n = 25;

r2 = array1d(1..2, [3, 11]);

r3 = array1d(1..2, [3, 13]);

r4 = array1d(1..2, [2, 9]);

r5 = array1d(1..2, [2, 7]);

r6 = array1d(1..2, [3, 9]);

r7 = array1d(1..2, [3, 7]);

r8 = array1d(1..2, [2, 11]);

r9 = array1d(1..2, [2, 13]);

r10 = array1d(1..2, [4, 11]);

r11 = array1d(1..2, [4, 13]);

r12 = array1d(1..2, [5, 3]);

r13 = array1d(1..2, [2, 11]);

r14 = array1d(1..2, [2, 2]);

r15 = array1d(1..2, [3, 11]);

r16 = array1d(1..2, [3, 2]);

r17 = array1d(1..2, [4, 5]);

r18 = array1d(1..2, [4, 6]);

r19 = array1d(1..2, [2, 12]);

r20 = array1d(1..2, [2, 1]);

r21 = array1d(1..2, [5, 3]);

r22 = array1d(1..2, [5, 13]);

r23 = array1d(1..2, [4, 12]);

r24 = array1d(1..2, [4, 1]);

r25 = array1d(1..2, [2, 5]);

r26 = array1d(1..2, [2, 6]);

